qbf_easy_train/easy_4278_SAT.qdimacs
p cnf 18 38
a 8 3 4 0
e 1 2 5 6 7 9 10 11 12 13 14 15 16 17 18 0
-3 1 0
-3 2 0
-1 -2 3 0
-2 4 -5 0
2 -4 -5 0
-2 -4 5 0
2 4 5 0
-8 6 0
-8 7 0
-6 -7 8 0
9 5 0
9 -8 0
-5 8 -9 0
-10 3 0
-10 9 0
-3 -9 10 0
4 -11 -12 0
-4 11 -12 0
4 11 12 0
-4 -11 12 0
-14 -12 0
-14 -13 0
12 13 14 0
-15 12 -16 0
15 -12 -16 0
-15 -12 16 0
15 12 16 0
14 -16 -17 0
-14 16 -17 0
14 16 17 0
-14 -16 17 0
18 10 0
18 -17 0
-10 17 -18 0
-7 -17 11 0
2 -5 8 4 9 6 0
10 2 -5 0
18 0
