sat_easy_train/easy_4278_SAT.dimacs
p cnf 97 315
-3 -1 0
-3 -2 0
1 2 3 0
6 -4 0
6 -5 0
4 5 -6 0
7 -3 0
7 6 0
3 -6 -7 0
10 -9 0
10 2 0
9 -2 -10 0
11 -8 0
11 10 0
8 -10 -11 0
-3 -12 -13 0
3 12 -13 0
-3 12 13 0
3 -12 13 0
-14 11 0
-14 -13 0
-11 13 14 0
-15 -14 0
-15 -10 0
14 10 15 0
-16 -7 0
-16 15 0
7 -15 16 0
19 4 0
19 9 0
-4 -9 -19 0
20 18 0
20 -19 0
-18 19 -20 0
21 17 0
21 20 0
-17 -20 -21 0
-22 -16 0
-22 21 0
16 -21 22 0
-24 23 0
-24 2 0
-23 -2 24 0
-18 24 -25 0
18 -24 -25 0
-18 -24 25 0
18 24 25 0
-20 -25 -26 0
20 25 -26 0
-20 25 26 0
20 -25 26 0
-23 -24 -27 0
23 24 -27 0
-23 24 27 0
23 -24 27 0
-27 9 -28 0
27 -9 -28 0
-27 -9 28 0
27 9 28 0
29 24 0
29 -28 0
-24 28 -29 0
-13 30 -31 0
13 -30 -31 0
-13 -30 31 0
13 30 31 0
32 20 0
32 31 0
-20 -31 -32 0
33 -2 0
33 32 0
2 -32 -33 0
-29 -33 -34 0
29 33 -34 0
-29 33 34 0
29 -33 34 0
-26 -34 -35 0
26 34 -35 0
-26 34 35 0
26 -34 35 0
-37 36 0
-37 24 0
-36 -24 37 0
-38 1 0
-38 10 0
-1 -10 38 0
-37 -38 -39 0
37 38 -39 0
-37 38 39 0
37 -38 39 0
-40 -39 0
-40 -2 0
39 2 40 0
-41 -35 0
-41 -40 0
35 40 41 0
4 17 -42 0
-4 -17 -42 0
4 -17 42 0
-4 17 42 0
43 -18 0
43 -4 0
18 4 -43 0
44 -10 0
44 43 0
10 -43 -44 0
42 44 -45 0
-42 -44 -45 0
42 -44 45 0
-42 44 45 0
45 -46 -47 0
-45 46 -47 0
45 46 47 0
-45 -46 47 0
-10 -48 -49 0
10 48 -49 0
-10 48 49 0
10 -48 49 0
-19 -49 -50 0
19 49 -50 0
-19 49 50 0
19 -49 50 0
51 47 0
51 -50 0
-47 50 -51 0
-53 52 0
-53 -30 0
-52 30 53 0
-17 -53 -54 0
17 53 -54 0
-17 53 54 0
17 -53 54 0
-55 -1 0
-55 36 0
1 -36 55 0
56 -54 0
56 55 0
54 -55 -56 0
57 51 0
57 -56 0
-51 56 -57 0
41 -57 -58 0
-41 57 -58 0
41 57 58 0
-41 -57 58 0
-22 -58 -59 0
22 58 -59 0
-22 58 59 0
22 -58 59 0
60 2 0
60 52 0
-2 -52 -60 0
42 8 -61 0
-42 -8 -61 0
42 -8 61 0
-42 8 61 0
62 -61 0
62 -32 0
61 32 -62 0
17 63 0
-17 63 0
64 -30 0
64 -10 0
30 10 -64 0
32 64 -65 0
-32 -64 -65 0
32 -64 65 0
-32 64 65 0
-63 -65 -66 0
63 65 -66 0
-63 65 66 0
63 -65 66 0
67 62 0
67 66 0
-62 -66 -67 0
-68 -60 0
-68 67 0
60 -67 68 0
69 30 0
69 -5 0
-30 5 -69 0
71 -70 0
71 -46 0
70 46 -71 0
-69 71 -72 0
69 -71 -72 0
-69 -71 72 0
69 71 72 0
10 -2 -73 0
-10 2 -73 0
10 2 73 0
-10 -2 73 0
-74 72 0
-74 73 0
-72 -73 74 0
-44 19 -75 0
44 -19 -75 0
-44 -19 75 0
44 19 75 0
76 -8 0
76 75 0
8 -75 -76 0
-77 -76 0
-77 48 0
76 -48 77 0
78 -9 0
78 42 0
9 -42 -78 0
-79 -8 0
-79 6 0
8 -6 79 0
-80 -78 0
-80 -79 0
78 79 80 0
81 -4 0
81 80 0
4 -80 -81 0
-77 81 -82 0
77 -81 -82 0
-77 -81 82 0
77 81 82 0
-74 -82 -83 0
74 82 -83 0
-74 82 83 0
74 -82 83 0
68 83 -84 0
-68 -83 -84 0
68 -83 84 0
-68 83 84 0
85 -64 0
85 -53 0
64 53 -85 0
-86 -84 0
-86 85 0
84 -85 86 0
-59 86 -87 0
59 -86 -87 0
-59 -86 87 0
59 86 87 0
-38 -25 -88 0
38 25 -88 0
-38 25 88 0
38 -25 88 0
-89 44 0
-89 -80 0
-44 80 89 0
90 -88 0
90 89 0
88 -89 -90 0
-20 -27 -91 0
20 27 -91 0
-20 27 91 0
20 -27 91 0
-90 -91 -92 0
90 91 -92 0
-90 91 92 0
90 -91 92 0
-93 -3 0
-93 43 0
3 -43 93 0
-45 -44 -94 0
45 44 -94 0
-45 44 94 0
45 -44 94 0
95 93 0
95 94 0
-93 -94 -95 0
-96 -92 0
-96 95 0
92 -95 96 0
97 87 0
97 -96 0
-87 96 -97 0
-29 -49 -86 -14 0
93 83 0
62 -9 16 -92 0
-79 80 0
-33 49 8 -17 -88 -45 0
-69 50 0
-64 92 -96 20 81 0
-53 44 -93 -82 0
-66 -90 24 19 0
47 -51 -30 0
-30 34 2 -12 0
-10 -86 -1 0
-57 54 68 44 0
90 3 81 65 51 0
61 -6 11 0
45 44 -48 -93 -3 72 0
-86 70 -97 11 0
-7 74 0
-13 -20 -49 -48 0
83 72 -8 82 0
8 -32 -86 0
58 -30 0
64 62 -15 31 43 0
93 -7 0
29 93 25 0
-2 -3 50 -77 17 74 0
68 -55 0
-45 -18 17 0
79 23 -44 0
34 62 0
-15 -13 65 24 8 0
15 33 -60 0
-16 -49 -87 0
52 31 43 0
-88 82 -46 0
-15 -70 97 -32 40 0
89 -53 30 97 40 0
5 -54 -60 0
77 11 -67 1 0
-91 39 27 69 0
12 24 -13 -55 -28 0
97 0
